n = 20
Q1 = [0 28 25 34 19 33 35 44 9 50 31 36 5 17 6 19 39 42 48 19; 0 0 12 42 45 46 19 28 10 40 18 38 7 14 7 17 21 22 11 17; 0 0 0 40 41 22 27 24 30 26 9 20 5 33 25 26 25 6 31 9; 0 0 0 0 23 12 48 8 6 43 47 47 12 50 15 21 8 9 33 33; 0 0 0 0 0 27 26 10 36 11 36 17 18 16 40 30 16 12 21 19; 0 0 0 0 0 0 14 18 12 39 43 10 25 41 25 8 40 48 27 28; 0 0 0 0 0 0 0 9 16 44 29 30 43 44 22 34 45 14 25 13; 0 0 0 0 0 0 0 0 29 30 13 7 23 39 8 25 42 29 6 35; 0 0 0 0 0 0 0 0 0 50 7 31 31 17 49 7 13 32 25 27; 0 0 0 0 0 0 0 0 0 0 42 28 9 23 10 16 13 32 23 33; 0 0 0 0 0 0 0 0 0 0 0 32 21 23 48 40 6 28 9 28; 0 0 0 0 0 0 0 0 0 0 0 0 13 19 41 43 5 8 6 10; 0 0 0 0 0 0 0 0 0 0 0 0 0 46 15 36 46 30 26 26; 0 0 0 0 0 0 0 0 0 0 0 0 0 0 38 48 38 13 13 29; 0 0 0 0 0 0 0 0 0 0 0 0 0 0 0 19 43 14 39 10; 0 0 0 0 0 0 0 0 0 0 0 0 0 0 0 0 19 15 22 15; 0 0 0 0 0 0 0 0 0 0 0 0 0 0 0 0 0 43 37 34; 0 0 0 0 0 0 0 0 0 0 0 0 0 0 0 0 0 0 16 19; 0 0 0 0 0 0 0 0 0 0 0 0 0 0 0 0 0 0 0 6; 0 0 0 0 0 0 0 0 0 0 0 0 0 0 0 0 0 0 0 0]
Q2=[0.0 22.0 13.0 13.0 47.0 15.0 13.0 3.0 45.0 0.0 18.0 11.0 46.0 40.0 45.0 34.0 1.0 6.0 1.0 41.0; 0.0 0.0 46.0 7.0 0.0 4.0 31.0 14.0 41.0 4.0 50.0 10.0 47.0 38.0 50.0 45.0 43.0 41.0 45.0 45.0; 0.0 0.0 0.0 6.0 4.0 37.0 23.0 47.0 14.0 18.0 48.0 44.0 49.0 6.0 12.0 1.0 24.0 47.0 18.0 49.0; 0.0 0.0 0.0 0.0 44.0 46.0 0.0 49.0 46.0 7.0 1.0 2.0 50.0 0.0 50.0 38.0 43.0 45.0 6.0 13.0; 0.0 0.0 0.0 0.0 0.0 11.0 0.0 46.0 9.0 50.0 4.0 37.0 36.0 41.0 0.0 2.0 35.0 39.0 49.0 45.0; 0.0 0.0 0.0 0.0 0.0 0.0 38.0 34.0 42.0 4.0 3.0 43.0 8.0 4.0 18.0 46.0 3.0 0.0 4.0 2.0; 0.0 0.0 0.0 0.0 0.0 0.0 0.0 45.0 49.0 3.0 13.0 16.0 7.0 1.0 34.0 0.0 1.0 48.0 0.0 37.0; 0.0 0.0 0.0 0.0 0.0 0.0 0.0 0.0 7.0 18.0 47.0 43.0 29.0 2.0 44.0 13.0 2.0 11.0 49.0 10.0; 0.0 0.0 0.0 0.0 0.0 0.0 0.0 0.0 0.0 0.0 49.0 14.0 12.0 48.0 1.0 43.0 44.0 7.0 5.0 12.0; 0.0 0.0 0.0 0.0 0.0 0.0 0.0 0.0 0.0 0.0 0.0 14.0 44.0 50.0 45.0 39.0 43.0 4.0 44.0 11.0; 0.0 0.0 0.0 0.0 0.0 0.0 0.0 0.0 0.0 0.0 0.0 13.0 38.0 33.0 0.0 2.0 50.0 2.0 42.0 19.0; 0.0 0.0 0.0 0.0 0.0 0.0 0.0 0.0 0.0 0.0 0.0 0.0 43.0 43.0 0.0 7.0 50.0 45.0 46.0 47.0; 0.0 0.0 0.0 0.0 0.0 0.0 0.0 0.0 0.0 0.0 0.0 0.0 0.0 1.0 47.0 6.0 0.0 10.0 6.0 8.0; 0.0 0.0 0.0 0.0 0.0 0.0 0.0 0.0 0.0 0.0 0.0 0.0 0.0 0.0 10.0 1.0 4.0 49.0 41.0 1.0; 0.0 0.0 0.0 0.0 0.0 0.0 0.0 0.0 0.0 0.0 0.0 0.0 0.0 0.0 0.0 41.0 2.0 38.0 4.0 40.0; 0.0 0.0 0.0 0.0 0.0 0.0 0.0 0.0 0.0 0.0 0.0 0.0 0.0 0.0 0.0 0.0 46.0 43.0 29.0 36.0; 0.0 0.0 0.0 0.0 0.0 0.0 0.0 0.0 0.0 0.0 0.0 0.0 0.0 0.0 0.0 0.0 0.0 6.0 1.0 5.0; 0.0 0.0 0.0 0.0 0.0 0.0 0.0 0.0 0.0 0.0 0.0 0.0 0.0 0.0 0.0 0.0 0.0 0.0 34.0 47.0; 0.0 0.0 0.0 0.0 0.0 0.0 0.0 0.0 0.0 0.0 0.0 0.0 0.0 0.0 0.0 0.0 0.0 0.0 0.0 44.0; 0.0 0.0 0.0 0.0 0.0 0.0 0.0 0.0 0.0 0.0 0.0 0.0 0.0 0.0 0.0 0.0 0.0 0.0 0.0 0.0]
